branch-and-cut/resultados/I080/i080-025.sol
1162
6
3 53
5 53
6 53
1 53
4 53
2 53
